
#(C) 2024 by FIZ Karlsruhe - Leibniz Institute for Information Infrastructure.  All rights reserved.
data_30531-ICSD
_database_code_ICSD 30531
_audit_creation_date 1986-10-22
_audit_update_record 2012-02-01
_chemical_name_common 'Silver di-mue-thio-bis(dithiophosphate)'
_chemical_formula_structural 'Ag2 P2 S6'
_chemical_formula_sum 'Ag2 P2 S6'
_chemical_name_structure_type AgPS3
_exptl_crystal_density_diffrn 3.69
_citation_title
"Structure Cristalline de l'Hexathiodimetaphosphate d'Argent, Ag2 P2 S6"
loop_
_citation_id
_citation_journal_full
_citation_year
_citation_journal_volume
_citation_page_first
_citation_page_last
_citation_journal_id_ASTM
primary

;
Acta Crystallographica, Section B: Structural Crystallography and Crystal
Chemistry
; 1978 34 3561 3564 ACBCAR
loop_
_citation_author_citation_id
_citation_author_name
primary 'Toffoli, P.'
primary 'Khodadad, P.'
primary 'Rodier, N.'
_cell_length_a 11.210(3)
_cell_length_b 6.731(2)
_cell_length_c 6.998(2)
_cell_angle_alpha 90.
_cell_angle_beta 90.
_cell_angle_gamma 126.84(2)
_cell_volume 422.59
_cell_formula_units_Z 2
_space_group_name_H-M_alt 'B 1 1 2/m'
_space_group_IT_number 12
loop_
_space_group_symop_id
_space_group_symop_operation_xyz
1 '-x, -y, z'
2 '-x, -y, -z'
3 'x, y, -z'
4 'x, y, z'
5 '-x+1/2, -y, z+1/2'
6 '-x+1/2, -y, -z+1/2'
7 'x+1/2, y, -z+1/2'
8 'x+1/2, y, z+1/2'
loop_
_atom_type_symbol
_atom_type_oxidation_number
Ag1+ 1
S2- -2
P5+ 5
loop_
_atom_site_label
_atom_site_type_symbol
_atom_site_symmetry_multiplicity
_atom_site_Wyckoff_symbol
_atom_site_fract_x
_atom_site_fract_y
_atom_site_fract_z
_atom_site_B_iso_or_equiv
_atom_site_occupancy
Ag1 Ag1+ 4 g 0 0 0.2715(1) . 1.
S1 S2- 4 i 0.1818(2) 0.0469(3) 0 . 1.
S2 S2- 4 h 0 0.5 0.2790(2) . 1.
S3 S2- 4 i 0.2905(2) 0.6420(3) 0 . 1.
P1 P5+ 4 i 0.3455(1) 0.4085(2) 0 . 1.
loop_
_atom_site_aniso_label
_atom_site_aniso_type_symbol
_atom_site_aniso_beta_11
_atom_site_aniso_beta_22
_atom_site_aniso_beta_33
_atom_site_aniso_beta_12
_atom_site_aniso_beta_13
_atom_site_aniso_beta_23
Ag1 Ag1+ 0.0088(1) 0.0175(2) 0.0112(1) 0.0038(1) 0 0
S1 S2- 0.0036(1) 0.0074(3) 0.0116(3) 0.0014(2) 0 0
S2 S2- 0.0032(1) 0.0149(4) 0.0062(2) 0.0030(2) 0 0
S3 S2- 0.0051(1) 0.0128(4) 0.0090(3) 0.0057(2) 0 0
P1 P5+ 0.0025(1) 0.0073(3) 0.0068(2) 0.0019(2) 0 0
#End of TTdata_30531-ICSD